CPXPARAM_Read_DataCheck                          1
CPXPARAM_TimeLimit                               1800
Found incumbent of value 97.000000 after 0.00 sec. (0.03 ticks)
Tried aggregator 1 time.
MIP Presolve eliminated 399 rows and 1 columns.
MIP Presolve modified 99 coefficients.
Reduced MIP has 102 rows, 100 columns, and 587 nonzeros.
Reduced MIP has 100 binaries, 0 generals, 0 SOSs, and 0 indicators.
Presolve time = 0.00 sec. (0.65 ticks)
Probing time = 0.00 sec. (0.06 ticks)
Tried aggregator 1 time.
Reduced MIP has 102 rows, 100 columns, and 587 nonzeros.
Reduced MIP has 100 binaries, 0 generals, 0 SOSs, and 0 indicators.
Presolve time = 0.00 sec. (0.39 ticks)
Probing time = 0.00 sec. (0.06 ticks)
Clique table members: 102.
MIP emphasis: balance optimality and feasibility.
MIP search method: dynamic search.
Parallel mode: deterministic, using up to 4 threads.
Root relaxation solution time = 0.00 sec. (0.62 ticks)

        Nodes                                         Cuts/
   Node  Left     Objective  IInf  Best Integer    Best Bound    ItCnt     Gap

*     0+    0                           97.0000        0.0000           100.00%
*     0+    0                           85.0000        0.0000           100.00%
*     0+    0                           84.0000        0.0000           100.00%
*     0     0      integral     0       82.0000       82.0000      126    0.00%
Elapsed time = 0.01 sec. (2.08 ticks, tree = 0.00 MB, solutions = 4)

Root node processing (before b&c):
  Real time             =    0.01 sec. (2.09 ticks)
Parallel b&c, 4 threads:
  Real time             =    0.00 sec. (0.00 ticks)
  Sync time (average)   =    0.00 sec.
  Wait time (average)   =    0.00 sec.
                          ------------
Total (root+branch&cut) =    0.01 sec. (2.09 ticks)
82.0
0.0